rup/magic_series_3.rup
99:17 22 20 25 47
100:17 22 20 25 47
101:17 22 20 25 47
102:47 99 100 101
103:102
104:25
105:47 99 104 101
106:105
107:47 99 104 100
108:107
109:97 99 6
110:17 22 20 25 47
111:97 99 4
112:17 22 20 25 47
113:17 22 20 25 47
114:54
